(declare-fun bvlambda_31_ ()Bool         )
(declare-fun a135 () (Array (_ BitVec 1) (_ BitVec 9)))
(assert
(let (($e32 (_ bv0 9)))
(let (($e156 (store a135 true       $e32 )))
(
                 extract(select $e156(not bvlambda_31_))
                                                                                                                                                                                                                                                                                                                                                                                                                                                                                                                                                                                                                                                                                                                                                                                                                                                                                                                                                                                                                                                                                                                                                                                                                                                                                                                                                                                                                                                                                                                                                                                                                                                                                                                                                                                                                                   )             )                                                                            )                               )
